;; Preprocessed for Astral solver
(set-info :status sat)
;; variables
(declare-const x0 Loc)
(declare-const x1 Loc)
(declare-const x2 Loc)
(declare-const x3 Loc)
(declare-const x4 Loc)
(declare-const x5 Loc)
(declare-const x6 Loc)
(declare-const x7 Loc)
(declare-const x8 Loc)
(declare-const x9 Loc)
(declare-const x10 Loc)
(declare-const x11 Loc)
(declare-const x12 Loc)
(declare-const x13 Loc)
(declare-const x14 Loc)
(declare-const x15 Loc)
(declare-const x16 Loc)
(declare-const x17 Loc)
(declare-const x18 Loc)
(declare-const x19 Loc)
(declare-const x20 Loc)
(declare-const x21 Loc)
(declare-const x22 Loc)

(assert 
		(sep 
			(= nil nil)
		(sep 
			(pto x4 x12)
			(pto x10 x6)
			(ls x1 x11 )
			(ls x18 x8 )
			(pto x13 x9)
			(ls x14 x10 )
			(pto x15 x12)
			(ls x7 x16 )
			(pto x3 x11)
			(ls x16 x11 )
			(pto x12 x10)
			(pto x2 x6)
			(pto x9 x6)
			(ls x5 x9 )
			(pto x6 x1)
			(ls x17 x6 )
			(pto x8 x4)
			(pto x11 x7)
		)

		)

)

(assert (not 
		(sep 
			(ls x16 x11 )
			(ls x15 x12 )
			(ls x17 x6 )
			(ls x13 x9 )
			(ls x14 x10 )
			(ls x3 x11 )
			(ls x5 x6 )
			(ls x2 x6 )
			(ls x18 x6 )
			(ls x6 x16 )
		)

))

(check-sat)
